20190630 354100.00 323100.00
20180313 354000.00 289200.00
20170630 353791.73 288953.40
20170525 352963.25 288124.92
20161026 352431.96 287593.63
20160602 321975.29 286548.73
20151215 160873.55 143147.71
